words_hard_train/5233.qaiger
aag 93 16 0 1 77
2
4
8
12
16
20
24
32
34
38
42
46
50
64
124
162
187
6 3 5
10 6 9
14 10 13
18 14 17
22 18 21
26 22 25
28 23 24
30 27 29
36 33 35
40 36 39
44 41 42
48 45 47
52 49 50
54 48 51
56 53 55
58 15 16
60 59 19
62 56 60
66 54 65
68 55 64
70 67 69
72 19 20
74 73 23
76 70 74
78 63 77
80 11 12
82 81 15
84 44 46
86 85 49
88 83 87
90 57 61
92 89 91
94 40 43
96 95 45
98 7 8
100 99 11
102 97 100
104 96 101
106 2 4
108 107 7
110 37 38
112 111 41
114 109 113
116 105 115
118 108 112
120 3 34
122 121 37
126 124 32
128 2 35
130 126 129
132 122 131
134 119 133
136 116 135
138 103 137
140 82 86
142 138 141
144 92 143
146 78 145
148 71 75
150 147 149
152 31 150
154 40 42
156 47 65
158 156 51
160 154 158
164 160 162
166 153 165
168 30 151
170 158 163
172 170 45
174 158 43
176 175 162
178 173 177
180 169 179
182 166 181
184 152 164
186 183 185
i0 2 y2[1]
i1 2 y2[2]
i2 2 y2[3]
i3 2 y2[4]
i4 2 y2[5]
i5 2 y2[6]
i6 2 y2[7]
i7 1 x2[0]
i8 1 x2[1]
i9 1 x2[2]
i10 1 x2[3]
i11 1 x2[4]
i12 1 x2[5]
i13 1 x2[6]
i14 2 y2[0]
i15 1 x2[7]
o0 bv[0]
c
simplified
  <
    subtract
      1
      2 y2
    subtract
      1 x2
      << 3
        1
