words_hard_train/5233.qaiger.qdimacs
p cnf 93 232
a 32 16 17 81 19 21 23 25 0
e 1 2 3 4 5 6 7 8 9 10 11 12 13 14 15 18 20 22 24 26 27 28 29 30 31 33 34 35 36 37 38 39 40 41 42 43 44 45 46 47 48 49 50 51 52 53 54 55 56 57 58 59 60 61 62 63 64 65 66 67 68 69 70 71 72 73 74 75 76 77 78 79 80 82 83 84 85 86 87 88 89 90 91 92 93 0
1 2 3 0
-1 -3 0
-2 -3 0
-3 4 5 0
3 -5 0
-4 -5 0
-5 6 7 0
5 -7 0
-6 -7 0
-7 8 9 0
7 -9 0
-8 -9 0
-9 10 11 0
9 -11 0
-10 -11 0
-11 12 13 0
11 -13 0
-12 -13 0
11 -12 14 0
-11 -14 0
12 -14 0
13 14 15 0
-13 -15 0
-14 -15 0
16 17 18 0
-16 -18 0
-17 -18 0
-18 19 20 0
18 -20 0
-19 -20 0
20 -21 22 0
-20 -22 0
21 -22 0
22 23 24 0
-22 -24 0
-23 -24 0
24 -25 26 0
-24 -26 0
25 -26 0
-24 25 27 0
24 -27 0
-25 -27 0
26 27 28 0
-26 -28 0
-27 -28 0
7 -8 29 0
-7 -29 0
8 -29 0
29 9 30 0
-29 -30 0
-9 -30 0
-28 -30 31 0
28 -31 0
30 -31 0
-27 32 33 0
27 -33 0
-32 -33 0
27 -32 34 0
-27 -34 0
32 -34 0
33 34 35 0
-33 -35 0
-34 -35 0
9 -10 36 0
-9 -36 0
10 -36 0
36 11 37 0
-36 -37 0
-11 -37 0
-35 -37 38 0
35 -38 0
37 -38 0
31 38 39 0
-31 -39 0
-38 -39 0
5 -6 40 0
-5 -40 0
6 -40 0
40 7 41 0
-40 -41 0
-7 -41 0
-22 -23 42 0
22 -42 0
23 -42 0
42 24 43 0
-42 -43 0
-24 -43 0
41 43 44 0
-41 -44 0
-43 -44 0
28 30 45 0
-28 -45 0
-30 -45 0
44 45 46 0
-44 -46 0
-45 -46 0
-20 21 47 0
20 -47 0
-21 -47 0
47 22 48 0
-47 -48 0
-22 -48 0
3 -4 49 0
-3 -49 0
4 -49 0
49 5 50 0
-49 -50 0
-5 -50 0
48 -50 51 0
-48 -51 0
50 -51 0
-48 50 52 0
48 -52 0
-50 -52 0
-1 -2 53 0
1 -53 0
2 -53 0
53 3 54 0
-53 -54 0
-3 -54 0
18 -19 55 0
-18 -55 0
19 -55 0
55 20 56 0
-55 -56 0
-20 -56 0
54 56 57 0
-54 -57 0
-56 -57 0
52 57 58 0
-52 -58 0
-57 -58 0
-54 -56 59 0
54 -59 0
56 -59 0
1 -17 60 0
-1 -60 0
17 -60 0
60 18 61 0
-60 -61 0
-18 -61 0
-62 -16 63 0
62 -63 0
16 -63 0
-1 17 64 0
1 -64 0
-17 -64 0
-63 64 65 0
63 -65 0
-64 -65 0
-61 65 66 0
61 -66 0
-65 -66 0
59 66 67 0
-59 -67 0
-66 -67 0
-58 67 68 0
58 -68 0
-67 -68 0
51 68 69 0
-51 -69 0
-68 -69 0
-41 -43 70 0
41 -70 0
43 -70 0
-69 70 71 0
69 -71 0
-70 -71 0
-46 71 72 0
46 -72 0
-71 -72 0
-39 72 73 0
39 -73 0
-72 -73 0
35 37 74 0
-35 -74 0
-37 -74 0
73 74 75 0
-73 -75 0
-74 -75 0
15 -75 76 0
-15 -76 0
75 -76 0
-20 -21 77 0
20 -77 0
21 -77 0
23 32 78 0
-23 -78 0
-32 -78 0
-78 25 79 0
78 -79 0
-25 -79 0
-77 -79 80 0
77 -80 0
79 -80 0
-80 -81 82 0
80 -82 0
81 -82 0
76 82 83 0
-76 -83 0
-82 -83 0
-15 75 84 0
15 -84 0
-75 -84 0
-79 81 85 0
79 -85 0
-81 -85 0
-85 22 86 0
85 -86 0
-22 -86 0
-79 21 87 0
79 -87 0
-21 -87 0
87 -81 88 0
-87 -88 0
81 -88 0
86 88 89 0
-86 -89 0
-88 -89 0
84 89 90 0
-84 -90 0
-89 -90 0
-83 90 91 0
83 -91 0
-90 -91 0
-76 -82 92 0
76 -92 0
82 -92 0
91 92 93 0
-91 -93 0
-92 -93 0
-93 0
